/* Cplex Data generated on 2017-12-15 */

k = 76;

b = 38;

AtomicConstraints = {
	 <2, 3>,
	 <2, 4>,
	 <2, 5>,
	 <2, 6>,
	 <2, 7>,
	 <2, 8>,
	 <2, 9>,
	 <2, 10>,
	 <2, 21>,
	 <2, 22>,
	 <2, 24>,
	 <2, 25>,
	 <2, 26>,
	 <2, 27>,
	 <2, 28>,
	 <2, 29>,
	 <3, 4>,
	 <3, 5>,
	 <3, 6>,
	 <3, 7>,
	 <3, 8>,
	 <3, 9>,
	 <3, 10>,
	 <3, 22>,
	 <3, 24>,
	 <3, 25>,
	 <3, 26>,
	 <3, 27>,
	 <3, 28>,
	 <3, 29>,
	 <4, 5>,
	 <4, 6>,
	 <4, 7>,
	 <4, 8>,
	 <4, 9>,
	 <4, 10>,
	 <4, 24>,
	 <4, 25>,
	 <4, 26>,
	 <4, 27>,
	 <4, 28>,
	 <4, 29>,
	 <5, 6>,
	 <5, 7>,
	 <5, 8>,
	 <5, 9>,
	 <5, 10>,
	 <5, 25>,
	 <5, 26>,
	 <5, 27>,
	 <5, 28>,
	 <5, 29>,
	 <6, 7>,
	 <6, 8>,
	 <6, 9>,
	 <6, 10>,
	 <6, 26>,
	 <6, 27>,
	 <6, 28>,
	 <6, 29>,
	 <7, 8>,
	 <7, 9>,
	 <7, 10>,
	 <7, 27>,
	 <7, 28>,
	 <7, 29>,
	 <8, 9>,
	 <8, 10>,
	 <8, 28>,
	 <8, 29>,
	 <9, 10>,
	 <9, 29>,
	 <1, 2>,
	 <1, 3>,
	 <1, 4>,
	 <1, 5>,
	 <1, 6>,
	 <1, 7>,
	 <1, 8>,
	 <1, 9>,
	 <1, 10>,
	 <1, 11>,
	 <1, 13>,
	 <1, 14>,
	 <1, 15>,
	 <1, 16>,
	 <1, 17>,
	 <1, 18>,
	 <1, 19>,
	 <1, 20>,
	 <1, 21>,
	 <1, 22>,
	 <1, 23>,
	 <1, 24>,
	 <1, 25>,
	 <1, 26>,
	 <1, 27>,
	 <1, 28>,
	 <1, 29>,
	 <1, 30>,
	 <1, 31>,
	 <1, 32>,
	 <1, 33>,
	 <1, 34>,
	 <12, 2>,
	 <12, 3>,
	 <12, 4>,
	 <12, 5>,
	 <12, 6>,
	 <12, 7>,
	 <12, 8>,
	 <12, 9>,
	 <12, 10>,
	 <12, 11>,
	 <12, 13>,
	 <12, 14>,
	 <12, 15>,
	 <12, 16>,
	 <12, 17>,
	 <12, 18>,
	 <12, 19>,
	 <12, 20>,
	 <12, 21>,
	 <12, 22>,
	 <12, 23>,
	 <12, 24>,
	 <12, 25>,
	 <12, 26>,
	 <12, 27>,
	 <12, 28>,
	 <12, 29>,
	 <12, 30>,
	 <12, 31>,
	 <12, 32>,
	 <12, 33>,
	 <12, 34>,
	 <13, 2>,
	 <13, 3>,
	 <13, 4>,
	 <13, 5>,
	 <13, 6>,
	 <13, 7>,
	 <13, 8>,
	 <13, 9>,
	 <13, 10>,
	 <13, 14>,
	 <13, 15>,
	 <13, 16>,
	 <13, 17>,
	 <13, 18>,
	 <13, 19>,
	 <13, 20>,
	 <13, 21>,
	 <13, 22>,
	 <13, 23>,
	 <13, 24>,
	 <13, 25>,
	 <13, 26>,
	 <13, 27>,
	 <13, 28>,
	 <13, 29>,
	 <13, 30>,
	 <13, 31>,
	 <13, 32>,
	 <13, 33>,
	 <13, 34>,
	 <11, 2>,
	 <11, 3>,
	 <11, 4>,
	 <11, 5>,
	 <11, 6>,
	 <11, 7>,
	 <11, 8>,
	 <11, 9>,
	 <11, 10>,
	 <11, 14>,
	 <11, 15>,
	 <11, 16>,
	 <11, 17>,
	 <11, 18>,
	 <11, 19>,
	 <11, 20>,
	 <11, 21>,
	 <11, 22>,
	 <11, 23>,
	 <11, 24>,
	 <11, 25>,
	 <11, 26>,
	 <11, 27>,
	 <11, 28>,
	 <11, 29>,
	 <11, 30>,
	 <11, 31>,
	 <11, 32>,
	 <11, 33>,
	 <11, 34>,
	 <14, 2>,
	 <14, 3>,
	 <14, 4>,
	 <14, 5>,
	 <14, 6>,
	 <14, 7>,
	 <14, 8>,
	 <14, 9>,
	 <14, 10>,
	 <14, 15>,
	 <14, 16>,
	 <14, 17>,
	 <14, 18>,
	 <14, 19>,
	 <14, 20>,
	 <14, 21>,
	 <14, 22>,
	 <14, 24>,
	 <14, 25>,
	 <14, 26>,
	 <14, 27>,
	 <14, 28>,
	 <14, 29>,
	 <14, 30>,
	 <14, 31>,
	 <14, 32>,
	 <14, 33>,
	 <14, 34>,
	 <15, 2>,
	 <15, 3>,
	 <15, 4>,
	 <15, 5>,
	 <15, 6>,
	 <15, 7>,
	 <15, 8>,
	 <15, 9>,
	 <15, 10>,
	 <15, 16>,
	 <15, 17>,
	 <15, 18>,
	 <15, 19>,
	 <15, 20>,
	 <15, 21>,
	 <15, 22>,
	 <15, 24>,
	 <15, 25>,
	 <15, 26>,
	 <15, 27>,
	 <15, 28>,
	 <15, 29>,
	 <15, 31>,
	 <15, 32>,
	 <15, 33>,
	 <15, 34>,
	 <16, 2>,
	 <16, 3>,
	 <16, 4>,
	 <16, 5>,
	 <16, 6>,
	 <16, 7>,
	 <16, 8>,
	 <16, 9>,
	 <16, 10>,
	 <16, 17>,
	 <16, 18>,
	 <16, 19>,
	 <16, 20>,
	 <16, 21>,
	 <16, 22>,
	 <16, 24>,
	 <16, 25>,
	 <16, 26>,
	 <16, 27>,
	 <16, 28>,
	 <16, 29>,
	 <16, 32>,
	 <16, 33>,
	 <16, 34>,
	 <17, 2>,
	 <17, 3>,
	 <17, 4>,
	 <17, 5>,
	 <17, 6>,
	 <17, 7>,
	 <17, 8>,
	 <17, 9>,
	 <17, 10>,
	 <17, 18>,
	 <17, 19>,
	 <17, 20>,
	 <17, 21>,
	 <17, 22>,
	 <17, 24>,
	 <17, 25>,
	 <17, 26>,
	 <17, 27>,
	 <17, 28>,
	 <17, 29>,
	 <17, 33>,
	 <17, 34>,
	 <18, 2>,
	 <18, 3>,
	 <18, 4>,
	 <18, 5>,
	 <18, 6>,
	 <18, 7>,
	 <18, 8>,
	 <18, 9>,
	 <18, 10>,
	 <18, 19>,
	 <18, 20>,
	 <18, 21>,
	 <18, 22>,
	 <18, 24>,
	 <18, 25>,
	 <18, 26>,
	 <18, 27>,
	 <18, 28>,
	 <18, 29>,
	 <18, 34>,
	 <19, 2>,
	 <19, 3>,
	 <19, 4>,
	 <19, 5>,
	 <19, 6>,
	 <19, 7>,
	 <19, 8>,
	 <19, 9>,
	 <19, 10>,
	 <19, 20>,
	 <19, 21>,
	 <19, 22>,
	 <19, 24>,
	 <19, 25>,
	 <19, 26>,
	 <19, 27>,
	 <19, 28>,
	 <19, 29>,
	 <20, 3>,
	 <20, 4>,
	 <20, 5>,
	 <20, 6>,
	 <20, 7>,
	 <20, 8>,
	 <20, 9>,
	 <20, 10>,
	 <20, 21>,
	 <20, 22>,
	 <20, 24>,
	 <20, 25>,
	 <20, 26>,
	 <20, 27>,
	 <20, 28>,
	 <20, 29>,
	 <21, 4>,
	 <21, 5>,
	 <21, 6>,
	 <21, 7>,
	 <21, 8>,
	 <21, 9>,
	 <21, 10>,
	 <21, 22>,
	 <21, 24>,
	 <21, 25>,
	 <21, 26>,
	 <21, 27>,
	 <21, 28>,
	 <21, 29>,
	 <22, 5>,
	 <22, 6>,
	 <22, 7>,
	 <22, 8>,
	 <22, 9>,
	 <22, 10>,
	 <22, 24>,
	 <22, 25>,
	 <22, 26>,
	 <22, 27>,
	 <22, 28>,
	 <22, 29>,
	 <24, 6>,
	 <24, 7>,
	 <24, 8>,
	 <24, 9>,
	 <24, 10>,
	 <24, 25>,
	 <24, 26>,
	 <24, 27>,
	 <24, 28>,
	 <24, 29>,
	 <25, 7>,
	 <25, 8>,
	 <25, 9>,
	 <25, 10>,
	 <25, 26>,
	 <25, 27>,
	 <25, 28>,
	 <25, 29>,
	 <26, 8>,
	 <26, 9>,
	 <26, 10>,
	 <26, 27>,
	 <26, 28>,
	 <26, 29>,
	 <27, 9>,
	 <27, 10>,
	 <27, 28>,
	 <27, 29>,
	 <28, 10>,
	 <28, 29>,
	 <23, 2>,
	 <23, 3>,
	 <23, 4>,
	 <23, 5>,
	 <23, 6>,
	 <23, 7>,
	 <23, 8>,
	 <23, 9>,
	 <23, 10>,
	 <23, 15>,
	 <23, 16>,
	 <23, 17>,
	 <23, 18>,
	 <23, 19>,
	 <23, 20>,
	 <23, 21>,
	 <23, 22>,
	 <23, 24>,
	 <23, 25>,
	 <23, 26>,
	 <23, 27>,
	 <23, 28>,
	 <23, 29>,
	 <23, 30>,
	 <23, 31>,
	 <23, 32>,
	 <23, 33>,
	 <23, 34>,
	 <30, 2>,
	 <30, 3>,
	 <30, 4>,
	 <30, 5>,
	 <30, 6>,
	 <30, 7>,
	 <30, 8>,
	 <30, 9>,
	 <30, 10>,
	 <30, 16>,
	 <30, 17>,
	 <30, 18>,
	 <30, 19>,
	 <30, 20>,
	 <30, 21>,
	 <30, 22>,
	 <30, 24>,
	 <30, 25>,
	 <30, 26>,
	 <30, 27>,
	 <30, 28>,
	 <30, 29>,
	 <30, 31>,
	 <30, 32>,
	 <30, 33>,
	 <30, 34>,
	 <31, 2>,
	 <31, 3>,
	 <31, 4>,
	 <31, 5>,
	 <31, 6>,
	 <31, 7>,
	 <31, 8>,
	 <31, 9>,
	 <31, 10>,
	 <31, 17>,
	 <31, 18>,
	 <31, 19>,
	 <31, 20>,
	 <31, 21>,
	 <31, 22>,
	 <31, 24>,
	 <31, 25>,
	 <31, 26>,
	 <31, 27>,
	 <31, 28>,
	 <31, 29>,
	 <31, 32>,
	 <31, 33>,
	 <31, 34>,
	 <32, 2>,
	 <32, 3>,
	 <32, 4>,
	 <32, 5>,
	 <32, 6>,
	 <32, 7>,
	 <32, 8>,
	 <32, 9>,
	 <32, 10>,
	 <32, 18>,
	 <32, 19>,
	 <32, 20>,
	 <32, 21>,
	 <32, 22>,
	 <32, 24>,
	 <32, 25>,
	 <32, 26>,
	 <32, 27>,
	 <32, 28>,
	 <32, 29>,
	 <32, 33>,
	 <32, 34>,
	 <33, 2>,
	 <33, 3>,
	 <33, 4>,
	 <33, 5>,
	 <33, 6>,
	 <33, 7>,
	 <33, 8>,
	 <33, 9>,
	 <33, 10>,
	 <33, 19>,
	 <33, 20>,
	 <33, 21>,
	 <33, 22>,
	 <33, 24>,
	 <33, 25>,
	 <33, 26>,
	 <33, 27>,
	 <33, 28>,
	 <33, 29>,
	 <33, 34>,
	 <34, 2>,
	 <34, 3>,
	 <34, 4>,
	 <34, 5>,
	 <34, 6>,
	 <34, 7>,
	 <34, 8>,
	 <34, 9>,
	 <34, 10>,
	 <34, 20>,
	 <34, 21>,
	 <34, 22>,
	 <34, 24>,
	 <34, 25>,
	 <34, 26>,
	 <34, 27>,
	 <34, 28>,
	 <34, 29>,
	 <52, 69>,
	 <52, 61>,
	 <52, 68>,
	 <53, 69>,
	 <53, 61>,
	 <53, 68>,
	 <54, 69>,
	 <54, 68>,
	 <35, 66>,
	 <35, 67>,
	 <35, 47>,
	 <42, 69>,
	 <42, 66>,
	 <42, 67>,
	 <42, 47>,
	 <42, 48>,
	 <42, 53>,
	 <42, 54>,
	 <42, 35>,
	 <42, 68>,
	 <43, 66>,
	 <43, 67>,
	 <43, 47>,
	 <43, 48>,
	 <43, 54>,
	 <43, 35>,
	 <73, 66>,
	 <73, 67>,
	 <73, 47>,
	 <73, 48>,
	 <73, 35>,
	 <58, 52>,
	 <58, 69>,
	 <58, 66>,
	 <58, 67>,
	 <58, 47>,
	 <58, 48>,
	 <58, 53>,
	 <58, 54>,
	 <58, 35>,
	 <58, 61>,
	 <58, 68>,
	 <58, 42>,
	 <58, 40>,
	 <58, 41>,
	 <59, 69>,
	 <59, 66>,
	 <59, 67>,
	 <59, 47>,
	 <59, 48>,
	 <59, 53>,
	 <59, 54>,
	 <59, 35>,
	 <59, 68>,
	 <59, 42>,
	 <59, 43>,
	 <59, 40>,
	 <59, 41>,
	 <60, 69>,
	 <60, 66>,
	 <60, 67>,
	 <60, 47>,
	 <60, 48>,
	 <60, 53>,
	 <60, 54>,
	 <60, 35>,
	 <60, 42>,
	 <60, 43>,
	 <60, 41>,
	 <62, 66>,
	 <62, 67>,
	 <62, 47>,
	 <62, 48>,
	 <62, 35>,
	 <62, 42>,
	 <62, 43>,
	 <40, 52>,
	 <40, 69>,
	 <40, 66>,
	 <40, 67>,
	 <40, 47>,
	 <40, 48>,
	 <40, 53>,
	 <40, 54>,
	 <40, 35>,
	 <40, 61>,
	 <40, 68>,
	 <41, 52>,
	 <41, 69>,
	 <41, 66>,
	 <41, 67>,
	 <41, 47>,
	 <41, 48>,
	 <41, 53>,
	 <41, 54>,
	 <41, 35>,
	 <41, 68>,
	 <46, 69>,
	 <46, 66>,
	 <46, 67>,
	 <46, 47>,
	 <46, 48>,
	 <46, 54>,
	 <46, 35>,
	 <46, 42>,
	 <46, 43>,
	 <46, 73>,
	 <46, 59>,
	 <46, 60>,
	 <46, 62>,
	 <63, 52>,
	 <63, 69>,
	 <63, 66>,
	 <63, 67>,
	 <63, 47>,
	 <63, 48>,
	 <63, 53>,
	 <63, 54>,
	 <63, 35>,
	 <63, 61>,
	 <63, 68>,
	 <63, 58>,
	 <63, 42>,
	 <63, 43>,
	 <63, 73>,
	 <63, 59>,
	 <63, 60>,
	 <63, 62>,
	 <63, 40>,
	 <63, 41>,
	 <63, 46>,
	 <63, 44>,
	 <63, 45>,
	 <64, 69>,
	 <64, 66>,
	 <64, 67>,
	 <64, 47>,
	 <64, 48>,
	 <64, 53>,
	 <64, 54>,
	 <64, 35>,
	 <64, 68>,
	 <64, 42>,
	 <64, 43>,
	 <64, 73>,
	 <64, 59>,
	 <64, 60>,
	 <64, 62>,
	 <64, 41>,
	 <64, 46>,
	 <64, 44>,
	 <64, 45>,
	 <65, 69>,
	 <65, 66>,
	 <65, 67>,
	 <65, 47>,
	 <65, 48>,
	 <65, 54>,
	 <65, 35>,
	 <65, 42>,
	 <65, 43>,
	 <65, 73>,
	 <65, 60>,
	 <65, 62>,
	 <65, 46>,
	 <65, 45>,
	 <36, 66>,
	 <36, 67>,
	 <36, 47>,
	 <36, 48>,
	 <36, 35>,
	 <36, 73>,
	 <37, 66>,
	 <37, 67>,
	 <37, 47>,
	 <37, 48>,
	 <37, 35>,
	 <37, 73>,
	 <38, 66>,
	 <38, 67>,
	 <38, 47>,
	 <38, 48>,
	 <38, 35>,
	 <38, 73>,
	 <44, 52>,
	 <44, 69>,
	 <44, 66>,
	 <44, 67>,
	 <44, 47>,
	 <44, 48>,
	 <44, 53>,
	 <44, 54>,
	 <44, 35>,
	 <44, 61>,
	 <44, 68>,
	 <44, 58>,
	 <44, 42>,
	 <44, 43>,
	 <44, 73>,
	 <44, 59>,
	 <44, 60>,
	 <44, 62>,
	 <44, 40>,
	 <44, 41>,
	 <45, 69>,
	 <45, 66>,
	 <45, 67>,
	 <45, 47>,
	 <45, 48>,
	 <45, 53>,
	 <45, 54>,
	 <45, 35>,
	 <45, 68>,
	 <45, 58>,
	 <45, 42>,
	 <45, 43>,
	 <45, 73>,
	 <45, 59>,
	 <45, 60>,
	 <45, 62>,
	 <45, 41>,
	 <72, 66>,
	 <72, 67>,
	 <72, 47>,
	 <72, 48>,
	 <72, 35>,
	 <72, 42>,
	 <72, 43>,
	 <72, 73>,
	 <72, 60>,
	 <72, 62>,
	 <72, 46>,
	 <72, 65>,
	 <72, 36>,
	 <72, 37>,
	 <72, 38>,
	 <74, 66>,
	 <74, 67>,
	 <74, 47>,
	 <74, 48>,
	 <74, 35>,
	 <74, 43>,
	 <74, 73>,
	 <74, 62>,
	 <74, 36>,
	 <74, 37>,
	 <74, 38>,
	 <75, 66>,
	 <75, 67>,
	 <75, 47>,
	 <75, 48>,
	 <75, 35>,
	 <75, 73>,
	 <75, 36>,
	 <75, 37>,
	 <75, 38>,
	 <76, 66>,
	 <76, 67>,
	 <76, 47>,
	 <76, 48>,
	 <76, 35>,
	 <76, 73>,
	 <76, 36>,
	 <76, 37>,
	 <76, 38>,
	 <51, 67>,
	 <51, 47>,
	 <51, 48>,
	 <51, 35>,
	 <51, 73>,
	 <51, 37>,
	 <51, 38>,
	 <50, 47>,
	 <50, 48>,
	 <50, 35>,
	 <50, 73>,
	 <50, 38>,
	 <39, 48>,
	 <55, 69>,
	 <55, 66>,
	 <55, 67>,
	 <55, 47>,
	 <55, 48>,
	 <55, 53>,
	 <55, 54>,
	 <55, 35>,
	 <55, 68>,
	 <55, 58>,
	 <55, 42>,
	 <55, 43>,
	 <55, 73>,
	 <55, 59>,
	 <55, 60>,
	 <55, 62>,
	 <55, 40>,
	 <55, 41>,
	 <55, 63>,
	 <55, 46>,
	 <55, 64>,
	 <55, 65>,
	 <55, 36>,
	 <55, 37>,
	 <55, 38>,
	 <55, 44>,
	 <55, 45>,
	 <55, 72>,
	 <55, 70>,
	 <55, 71>,
	 <56, 69>,
	 <56, 66>,
	 <56, 67>,
	 <56, 47>,
	 <56, 48>,
	 <56, 54>,
	 <56, 35>,
	 <56, 42>,
	 <56, 43>,
	 <56, 73>,
	 <56, 59>,
	 <56, 60>,
	 <56, 62>,
	 <56, 41>,
	 <56, 46>,
	 <56, 64>,
	 <56, 65>,
	 <56, 36>,
	 <56, 37>,
	 <56, 38>,
	 <56, 45>,
	 <56, 72>,
	 <56, 74>,
	 <56, 70>,
	 <56, 71>,
	 <57, 66>,
	 <57, 67>,
	 <57, 47>,
	 <57, 48>,
	 <57, 35>,
	 <57, 42>,
	 <57, 43>,
	 <57, 73>,
	 <57, 60>,
	 <57, 62>,
	 <57, 46>,
	 <57, 65>,
	 <57, 36>,
	 <57, 37>,
	 <57, 38>,
	 <57, 72>,
	 <57, 74>,
	 <57, 75>,
	 <57, 71>,
	 <70, 69>,
	 <70, 66>,
	 <70, 67>,
	 <70, 47>,
	 <70, 48>,
	 <70, 53>,
	 <70, 54>,
	 <70, 35>,
	 <70, 68>,
	 <70, 58>,
	 <70, 42>,
	 <70, 43>,
	 <70, 73>,
	 <70, 59>,
	 <70, 60>,
	 <70, 62>,
	 <70, 40>,
	 <70, 41>,
	 <70, 63>,
	 <70, 46>,
	 <70, 64>,
	 <70, 65>,
	 <70, 36>,
	 <70, 37>,
	 <70, 38>,
	 <70, 44>,
	 <70, 45>,
	 <71, 69>,
	 <71, 66>,
	 <71, 67>,
	 <71, 47>,
	 <71, 48>,
	 <71, 54>,
	 <71, 35>,
	 <71, 42>,
	 <71, 43>,
	 <71, 73>,
	 <71, 59>,
	 <71, 60>,
	 <71, 62>,
	 <71, 41>,
	 <71, 46>,
	 <71, 64>,
	 <71, 65>,
	 <71, 36>,
	 <71, 37>,
	 <71, 38>,
	 <71, 45>,
	 }; 

SoftAtomicConstraints = {
	 <1, 12>,
	 <11, 13>,
	 <23, 14>,
	 <30, 15>,
	 <31, 16>,
	 <32, 17>,
	 <33, 18>,
	 <34, 19>,
	 <2, 20>,
	 <3, 21>,
	 <4, 22>,
	 <5, 24>,
	 <6, 25>,
	 <7, 26>,
	 <8, 27>,
	 <9, 28>,
	 <10, 29>,
	 <54, 35>,
	 <65, 36>,
	 <36, 37>,
	 <37, 38>,
	 <50, 39>,
	 <40, 41>,
	 <41, 42>,
	 <42, 43>,
	 <44, 45>,
	 <45, 46>,
	 <67, 47>,
	 <47, 48>,
	 <39, 49>,
	 <51, 50>,
	 <76, 51>,
	 <52, 53>,
	 <53, 54>,
	 <55, 56>,
	 <56, 57>,
	 <58, 59>,
	 <59, 60>,
	 <60, 62>,
	 <63, 64>,
	 <64, 65>,
	 <69, 66>,
	 <66, 67>,
	 <61, 68>,
	 <68, 69>,
	 <70, 71>,
	 <71, 72>,
	 <43, 73>,
	 <72, 74>,
	 <74, 75>,
	 <75, 76>,
	 }; 

DisjunctiveConstraints = {
	 <2, 47, 2, 9>,
	 <2, 48, 2, 10>,
	 <2, 46, 2, 8>,
	 <2, 44, 2, 6>,
	 <2, 45, 2, 7>,
	 <3, 47, 3, 9>,
	 <3, 48, 3, 10>,
	 <3, 46, 3, 8>,
	 <3, 45, 3, 7>,
	 <4, 47, 4, 9>,
	 <4, 48, 4, 10>,
	 <4, 46, 4, 8>,
	 <5, 47, 5, 9>,
	 <5, 48, 5, 10>,
	 <6, 47, 6, 9>,
	 <6, 48, 6, 10>,
	 <7, 48, 7, 10>,
	 <1, 32, 1, 70>,
	 <1, 33, 1, 71>,
	 <1, 69, 1, 31>,
	 <1, 68, 1, 30>,
	 <1, 42, 1, 4>,
	 <1, 43, 1, 5>,
	 <1, 40, 1, 2>,
	 <1, 41, 1, 3>,
	 <1, 46, 1, 8>,
	 <1, 44, 1, 6>,
	 <1, 45, 1, 7>,
	 <1, 72, 1, 34>,
	 <12, 17, 12, 55>,
	 <12, 18, 12, 56>,
	 <12, 23, 61, 12>,
	 <12, 30, 68, 12>,
	 <12, 31, 69, 12>,
	 <12, 32, 70, 12>,
	 <12, 47, 12, 9>,
	 <12, 48, 12, 10>,
	 <12, 53, 12, 15>,
	 <12, 54, 12, 16>,
	 <12, 42, 12, 4>,
	 <12, 43, 12, 5>,
	 <12, 58, 12, 20>,
	 <12, 59, 12, 21>,
	 <12, 60, 12, 22>,
	 <12, 62, 12, 24>,
	 <12, 41, 12, 3>,
	 <12, 46, 12, 8>,
	 <12, 63, 12, 25>,
	 <12, 64, 12, 26>,
	 <12, 65, 12, 27>,
	 <12, 44, 12, 6>,
	 <12, 45, 12, 7>,
	 <12, 57, 12, 19>,
	 <13, 17, 13, 55>,
	 <13, 18, 13, 56>,
	 <13, 23, 61, 13>,
	 <13, 30, 68, 13>,
	 <13, 31, 69, 13>,
	 <13, 32, 70, 13>,
	 <13, 33, 71, 13>,
	 <13, 47, 13, 9>,
	 <13, 48, 13, 10>,
	 <13, 54, 13, 16>,
	 <13, 42, 13, 4>,
	 <13, 43, 13, 5>,
	 <13, 58, 13, 20>,
	 <13, 59, 13, 21>,
	 <13, 60, 13, 22>,
	 <13, 62, 13, 24>,
	 <13, 46, 13, 8>,
	 <13, 63, 13, 25>,
	 <13, 64, 13, 26>,
	 <13, 65, 13, 27>,
	 <13, 44, 13, 6>,
	 <13, 45, 13, 7>,
	 <13, 57, 13, 19>,
	 <11, 32, 11, 70>,
	 <11, 33, 11, 71>,
	 <11, 69, 11, 31>,
	 <11, 42, 11, 4>,
	 <11, 43, 11, 5>,
	 <11, 40, 11, 2>,
	 <11, 41, 11, 3>,
	 <11, 46, 11, 8>,
	 <11, 44, 11, 6>,
	 <11, 45, 11, 7>,
	 <11, 72, 11, 34>,
	 <14, 2, 40, 14>,
	 <14, 18, 14, 56>,
	 <14, 31, 69, 14>,
	 <14, 32, 70, 14>,
	 <14, 33, 71, 14>,
	 <14, 34, 72, 14>,
	 <14, 66, 14, 28>,
	 <14, 47, 14, 9>,
	 <14, 48, 14, 10>,
	 <14, 58, 14, 20>,
	 <14, 59, 14, 21>,
	 <14, 60, 14, 22>,
	 <14, 62, 14, 24>,
	 <14, 46, 14, 8>,
	 <14, 63, 14, 25>,
	 <14, 64, 14, 26>,
	 <14, 65, 14, 27>,
	 <14, 44, 14, 6>,
	 <14, 45, 14, 7>,
	 <14, 57, 14, 19>,
	 <15, 2, 40, 15>,
	 <15, 3, 41, 15>,
	 <15, 32, 70, 15>,
	 <15, 33, 71, 15>,
	 <15, 34, 72, 15>,
	 <15, 66, 15, 28>,
	 <15, 47, 15, 9>,
	 <15, 48, 15, 10>,
	 <15, 58, 15, 20>,
	 <15, 59, 15, 21>,
	 <15, 60, 15, 22>,
	 <15, 62, 15, 24>,
	 <15, 46, 15, 8>,
	 <15, 63, 15, 25>,
	 <15, 64, 15, 26>,
	 <15, 65, 15, 27>,
	 <15, 45, 15, 7>,
	 <15, 57, 15, 19>,
	 <16, 2, 40, 16>,
	 <16, 3, 41, 16>,
	 <16, 4, 42, 16>,
	 <16, 33, 71, 16>,
	 <16, 34, 72, 16>,
	 <16, 66, 16, 28>,
	 <16, 67, 16, 29>,
	 <16, 47, 16, 9>,
	 <16, 48, 16, 10>,
	 <16, 58, 16, 20>,
	 <16, 59, 16, 21>,
	 <16, 60, 16, 22>,
	 <16, 62, 16, 24>,
	 <16, 46, 16, 8>,
	 <16, 63, 16, 25>,
	 <16, 64, 16, 26>,
	 <16, 65, 16, 27>,
	 <17, 2, 40, 17>,
	 <17, 3, 41, 17>,
	 <17, 4, 42, 17>,
	 <17, 5, 43, 17>,
	 <17, 34, 72, 17>,
	 <17, 66, 17, 28>,
	 <17, 67, 17, 29>,
	 <17, 47, 17, 9>,
	 <17, 48, 17, 10>,
	 <17, 59, 17, 21>,
	 <17, 60, 17, 22>,
	 <17, 62, 17, 24>,
	 <17, 63, 17, 25>,
	 <17, 64, 17, 26>,
	 <17, 65, 17, 27>,
	 <18, 2, 40, 18>,
	 <18, 3, 41, 18>,
	 <18, 4, 42, 18>,
	 <18, 5, 43, 18>,
	 <18, 6, 44, 18>,
	 <18, 66, 18, 28>,
	 <18, 67, 18, 29>,
	 <18, 47, 18, 9>,
	 <18, 48, 18, 10>,
	 <18, 60, 18, 22>,
	 <18, 62, 18, 24>,
	 <18, 63, 18, 25>,
	 <18, 64, 18, 26>,
	 <18, 65, 18, 27>,
	 <19, 3, 41, 19>,
	 <19, 4, 42, 19>,
	 <19, 5, 43, 19>,
	 <19, 6, 44, 19>,
	 <19, 7, 45, 19>,
	 <19, 66, 19, 28>,
	 <19, 67, 19, 29>,
	 <19, 48, 19, 10>,
	 <19, 62, 19, 24>,
	 <19, 63, 19, 25>,
	 <19, 64, 19, 26>,
	 <19, 65, 19, 27>,
	 <20, 4, 42, 20>,
	 <20, 5, 43, 20>,
	 <20, 6, 44, 20>,
	 <20, 7, 45, 20>,
	 <20, 8, 46, 20>,
	 <20, 66, 20, 28>,
	 <20, 67, 20, 29>,
	 <20, 63, 20, 25>,
	 <20, 64, 20, 26>,
	 <20, 65, 20, 27>,
	 <21, 5, 43, 21>,
	 <21, 6, 44, 21>,
	 <21, 7, 45, 21>,
	 <21, 8, 46, 21>,
	 <21, 66, 21, 28>,
	 <21, 67, 21, 29>,
	 <21, 64, 21, 26>,
	 <21, 65, 21, 27>,
	 <22, 6, 44, 22>,
	 <22, 7, 45, 22>,
	 <22, 8, 46, 22>,
	 <22, 66, 22, 28>,
	 <22, 67, 22, 29>,
	 <22, 65, 22, 27>,
	 <24, 7, 45, 24>,
	 <24, 8, 46, 24>,
	 <24, 9, 47, 24>,
	 <24, 66, 24, 28>,
	 <24, 67, 24, 29>,
	 <25, 8, 46, 25>,
	 <25, 9, 47, 25>,
	 <25, 10, 48, 25>,
	 <25, 66, 25, 28>,
	 <25, 67, 25, 29>,
	 <26, 9, 47, 26>,
	 <26, 10, 48, 26>,
	 <27, 9, 47, 27>,
	 <27, 10, 48, 27>,
	 <23, 33, 23, 71>,
	 <23, 42, 23, 4>,
	 <23, 43, 23, 5>,
	 <23, 40, 23, 2>,
	 <23, 41, 23, 3>,
	 <23, 46, 23, 8>,
	 <23, 44, 23, 6>,
	 <23, 45, 23, 7>,
	 <23, 72, 23, 34>,
	 <30, 47, 30, 9>,
	 <30, 42, 30, 4>,
	 <30, 43, 30, 5>,
	 <30, 40, 30, 2>,
	 <30, 41, 30, 3>,
	 <30, 46, 30, 8>,
	 <30, 44, 30, 6>,
	 <30, 45, 30, 7>,
	 <30, 72, 30, 34>,
	 <31, 47, 31, 9>,
	 <31, 48, 31, 10>,
	 <31, 42, 31, 4>,
	 <31, 43, 31, 5>,
	 <31, 40, 31, 2>,
	 <31, 41, 31, 3>,
	 <31, 46, 31, 8>,
	 <31, 44, 31, 6>,
	 <31, 45, 31, 7>,
	 <32, 47, 32, 9>,
	 <32, 48, 32, 10>,
	 <32, 42, 32, 4>,
	 <32, 43, 32, 5>,
	 <32, 41, 32, 3>,
	 <32, 46, 32, 8>,
	 <32, 44, 32, 6>,
	 <32, 45, 32, 7>,
	 <33, 47, 33, 9>,
	 <33, 48, 33, 10>,
	 <33, 42, 33, 4>,
	 <33, 43, 33, 5>,
	 <33, 46, 33, 8>,
	 <33, 44, 33, 6>,
	 <33, 45, 33, 7>,
	 <34, 47, 34, 9>,
	 <34, 48, 34, 10>,
	 <34, 43, 34, 5>,
	 <34, 46, 34, 8>,
	 <34, 44, 34, 6>,
	 <34, 45, 34, 7>,
	 <67, 66, 67, 47>,
	 <47, 67, 47, 48>,
	 <53, 52, 53, 54>,
	 <68, 61, 68, 69>,
	 <42, 69, 42, 31>,
	 <42, 53, 15, 42>,
	 <42, 54, 42, 16>,
	 <42, 68, 30, 42>,
	 <42, 41, 42, 43>,
	 <43, 69, 31, 43>,
	 <43, 54, 16, 43>,
	 <73, 66, 73, 28>,
	 <73, 67, 73, 29>,
	 <58, 52, 58, 14>,
	 <58, 53, 58, 15>,
	 <58, 61, 58, 23>,
	 <58, 68, 58, 30>,
	 <59, 69, 59, 31>,
	 <59, 52, 14, 59>,
	 <59, 53, 59, 15>,
	 <59, 54, 59, 16>,
	 <59, 61, 23, 59>,
	 <59, 68, 59, 30>,
	 <59, 58, 59, 60>,
	 <60, 69, 60, 31>,
	 <60, 53, 15, 60>,
	 <60, 54, 60, 16>,
	 <60, 61, 23, 60>,
	 <60, 68, 30, 60>,
	 <60, 59, 60, 62>,
	 <62, 69, 31, 62>,
	 <62, 53, 15, 62>,
	 <62, 54, 16, 62>,
	 <62, 68, 30, 62>,
	 <40, 52, 40, 14>,
	 <40, 53, 40, 15>,
	 <40, 61, 40, 23>,
	 <40, 68, 40, 30>,
	 <41, 69, 41, 31>,
	 <41, 52, 14, 41>,
	 <41, 53, 41, 15>,
	 <41, 54, 41, 16>,
	 <41, 61, 23, 41>,
	 <41, 68, 41, 30>,
	 <41, 40, 41, 42>,
	 <46, 52, 14, 46>,
	 <46, 61, 23, 46>,
	 <46, 42, 46, 4>,
	 <46, 43, 46, 5>,
	 <46, 59, 21, 46>,
	 <46, 60, 46, 22>,
	 <46, 62, 46, 24>,
	 <46, 40, 2, 46>,
	 <46, 41, 3, 46>,
	 <63, 69, 63, 31>,
	 <63, 53, 63, 15>,
	 <63, 68, 63, 30>,
	 <63, 58, 63, 20>,
	 <63, 59, 63, 21>,
	 <63, 40, 63, 2>,
	 <63, 41, 63, 3>,
	 <64, 69, 64, 31>,
	 <64, 54, 64, 16>,
	 <64, 42, 64, 4>,
	 <64, 58, 20, 64>,
	 <64, 59, 64, 21>,
	 <64, 60, 64, 22>,
	 <64, 40, 2, 64>,
	 <64, 41, 64, 3>,
	 <64, 63, 64, 65>,
	 <65, 52, 14, 65>,
	 <65, 43, 65, 5>,
	 <65, 58, 20, 65>,
	 <65, 59, 21, 65>,
	 <65, 60, 65, 22>,
	 <65, 62, 65, 24>,
	 <65, 40, 2, 65>,
	 <65, 41, 3, 65>,
	 <65, 64, 65, 36>,
	 <36, 69, 31, 36>,
	 <36, 66, 36, 28>,
	 <36, 53, 15, 36>,
	 <36, 54, 16, 36>,
	 <36, 68, 30, 36>,
	 <36, 42, 4, 36>,
	 <36, 43, 5, 36>,
	 <36, 62, 24, 36>,
	 <36, 65, 36, 37>,
	 <37, 69, 31, 37>,
	 <37, 66, 37, 28>,
	 <37, 67, 37, 29>,
	 <37, 54, 16, 37>,
	 <37, 43, 5, 37>,
	 <37, 36, 37, 38>,
	 <38, 67, 38, 29>,
	 <38, 47, 38, 9>,
	 <38, 35, 38, 73>,
	 <44, 69, 44, 31>,
	 <44, 53, 44, 15>,
	 <44, 68, 44, 30>,
	 <44, 58, 44, 20>,
	 <44, 59, 44, 21>,
	 <44, 40, 44, 2>,
	 <44, 41, 44, 3>,
	 <45, 69, 45, 31>,
	 <45, 54, 45, 16>,
	 <45, 42, 45, 4>,
	 <45, 58, 20, 45>,
	 <45, 59, 45, 21>,
	 <45, 60, 45, 22>,
	 <45, 40, 2, 45>,
	 <45, 41, 45, 3>,
	 <45, 44, 45, 46>,
	 <72, 43, 72, 5>,
	 <72, 58, 20, 72>,
	 <72, 62, 72, 24>,
	 <72, 64, 26, 72>,
	 <72, 65, 72, 27>,
	 <72, 44, 6, 72>,
	 <72, 45, 7, 72>,
	 <72, 71, 72, 74>,
	 <74, 66, 74, 28>,
	 <74, 58, 20, 74>,
	 <74, 59, 21, 74>,
	 <74, 40, 2, 74>,
	 <74, 41, 3, 74>,
	 <74, 46, 8, 74>,
	 <74, 65, 27, 74>,
	 <74, 45, 7, 74>,
	 <74, 72, 74, 75>,
	 <75, 66, 75, 28>,
	 <75, 67, 75, 29>,
	 <75, 52, 14, 75>,
	 <75, 61, 23, 75>,
	 <75, 42, 4, 75>,
	 <75, 59, 21, 75>,
	 <75, 60, 22, 75>,
	 <75, 41, 3, 75>,
	 <75, 46, 8, 75>,
	 <75, 36, 75, 74>,
	 <75, 74, 75, 76>,
	 <76, 67, 76, 29>,
	 <76, 47, 76, 9>,
	 <76, 53, 15, 76>,
	 <76, 68, 30, 76>,
	 <76, 42, 4, 76>,
	 <76, 43, 5, 76>,
	 <76, 60, 22, 76>,
	 <76, 62, 24, 76>,
	 <76, 36, 74, 76>,
	 <76, 37, 76, 75>,
	 <76, 75, 76, 51>,
	 <51, 69, 31, 51>,
	 <51, 47, 51, 9>,
	 <51, 48, 51, 10>,
	 <51, 54, 16, 51>,
	 <51, 35, 51, 73>,
	 <51, 43, 5, 51>,
	 <51, 62, 24, 51>,
	 <51, 37, 75, 51>,
	 <51, 38, 51, 76>,
	 <51, 76, 51, 50>,
	 <50, 48, 50, 10>,
	 <50, 38, 76, 50>,
	 <50, 51, 50, 39>,
	 <39, 73, 35, 39>,
	 <39, 50, 39, 49>,
	 <49, 35, 73, 49>,
	 <49, 73, 35, 49>,
	 <55, 69, 55, 31>,
	 <55, 54, 55, 16>,
	 <55, 42, 55, 4>,
	 <55, 59, 55, 21>,
	 <55, 60, 55, 22>,
	 <55, 41, 55, 3>,
	 <55, 63, 55, 25>,
	 <55, 64, 55, 26>,
	 <55, 45, 55, 7>,
	 <56, 42, 56, 4>,
	 <56, 43, 56, 5>,
	 <56, 60, 56, 22>,
	 <56, 62, 56, 24>,
	 <56, 46, 56, 8>,
	 <56, 63, 25, 56>,
	 <56, 64, 56, 26>,
	 <56, 65, 56, 27>,
	 <56, 44, 6, 56>,
	 <56, 55, 56, 57>,
	 <57, 43, 57, 5>,
	 <57, 62, 57, 24>,
	 <57, 63, 25, 57>,
	 <57, 64, 26, 57>,
	 <57, 65, 57, 27>,
	 <57, 44, 6, 57>,
	 <57, 45, 7, 57>,
	 <70, 69, 70, 31>,
	 <70, 54, 70, 16>,
	 <70, 42, 70, 4>,
	 <70, 59, 70, 21>,
	 <70, 60, 70, 22>,
	 <70, 41, 70, 3>,
	 <70, 63, 70, 25>,
	 <70, 64, 70, 26>,
	 <70, 44, 70, 6>,
	 <70, 45, 70, 7>,
	 <71, 42, 71, 4>,
	 <71, 43, 71, 5>,
	 <71, 60, 71, 22>,
	 <71, 62, 71, 24>,
	 <71, 46, 71, 8>,
	 <71, 63, 25, 71>,
	 <71, 64, 71, 26>,
	 <71, 65, 71, 27>,
	 <71, 44, 6, 71>,
	 <71, 45, 71, 7>,
	 <71, 70, 71, 72>,
	 }; 

DirectSuccessors = {
	 }; 

